c 3 __LINUXTHREADS_OLD__
c 1 __UCLIBC_HAS_RPC__
c 2 __UCLIBC_HAS_THREADS_NATIVE__
c 4 __UCLIBC_HAS_STDIO_BUFSIZ_NONE__
c 7 __LINUXTHREADS_NEW__
c 6 __UCLIBC_HAS_FULL_RPC__
c 5 __UCLIBC_HAS_THREADS__
p cnf 7 1
2 3 4 -6 -5 -1 7 1
